Maximize
  0.0135336768808927 Z_577_2_0 + 0.00550968086688979 Z_577_2_1
   + 0.7939465363023449 Z_577_2_2 + 0.0183725762176997 Z_577_2_3
   + 0.8270995559163917 Z_577_1_0 + 0.00225320356226981 Z_577_1_1
   + 0.0293360082470347 Z_577_1_2 + 0.165520055627459 Z_577_1_3
   + 0.0403913516524007 Z_577_0_0 + 0.0256577624295057 Z_577_0_1
   + 0.0179953253592582 Z_577_0_2 + 0.8367369153543032 Z_577_0_3
   + 0.1626976009234501 Z_21_0_0 + 0.1351411956399752 Z_21_0_1
   + 0.0032269065328966 Z_21_0_2 + 0.0362869758828605 Z_21_0_3
   + 0.0158335507531123 Z_272_0_0 + 0.00638348820085609 Z_272_0_1
   + 0.0544016689824781 Z_272_0_2 + 0.1739015031320975 Z_272_0_3
   + 0.000446336 Z_393_0_0 + 0.041019032054312 Z_393_0_1
   + 0.3422781646370912 Z_393_0_2 + 0.00372223377707173 Z_393_0_3
   + 0.0121402501869854 Z_97_0_0 + 0.3696248040828803 Z_97_0_1
   + 0.0327943786441747 Z_97_0_2 + 0.1321648103578577 Z_97_0_3
   + 0.6277793475964041 Z_229_0_0 + 0.0224059594608941 Z_229_0_1
   + 0.0278893986616131 Z_229_0_2 + 0.0484790240650352 Z_229_0_3
   + 0.0355317994324174 Z_505_3_0 + 0.0266067160571131 Z_505_3_1
   + 0.0307388705853396 Z_505_3_2 + 0.0303203692424254 Z_505_3_3
   + 0.07855082987867 Z_505_5_0 + 0.0093080857960385 Z_505_5_1
   + 0.00638754241941826 Z_505_5_2 + 0.3519885968306093 Z_505_5_3
   + 0.0115323644506825 Z_505_1_0 + 0.00405857407934037 Z_505_1_1
   + 0.0247527787124018 Z_505_1_2 + 0.2161876540106043 Z_505_1_3
   + 0.00632486168446434 Z_505_0_0 + 0.00715805185827401 Z_505_0_1
   + 0.0565277626173382 Z_505_0_2 + 0.0315216735091767 Z_505_0_3
   + 0.0373392746522297 Z_505_6_0 + 0.0707693372625843 Z_505_6_1
   + 0.0127220413872681 Z_505_6_2 + 0.3192422545712315 Z_505_6_3
   + 0.0141827138140509 Z_505_4_0 + 0.0119815486904024 Z_505_4_1
   + 0.0195848475611077 Z_505_4_2 + 0.0271821337693123 Z_505_4_3
   + 0.0351799054396478 Z_505_7_0 + 0.0271827500861169 Z_505_7_1
   + 0.0324509293452452 Z_505_7_2 + 0.2300545408016538 Z_505_7_3
   + 0.00652625175447216 Z_505_2_0 + 0.011186668039187 Z_505_2_1
   + 0.0182553861426947 Z_505_2_2 + 0.569064767468588 Z_505_2_3
   + 0.0373392746522297 Z_505_8_0 + 0.0707693372625843 Z_505_8_1
   + 0.0127220413872681 Z_505_8_2 + 0.3192422545712315 Z_505_8_3
   + 0.0212036687207139 Z_62_2_0 + 0.0171680973534906 Z_62_2_1
   + 0.0215344571464787 Z_62_2_2 + 0.00128877463204876 Z_62_2_3
   + 9.3598717791494319e-04 Z_62_1_0 + 0.00319519552297846 Z_62_1_1
   + 0.045103628991116 Z_62_1_2 + 0.00394649817573603 Z_62_1_3
   + 0.0295091794198611 Z_62_0_0 + 0.7014802217380608 Z_62_0_1
   + 0.0111693827979735 Z_62_0_2 + 0.00971351070602903 Z_62_0_3
   + 0.136727469895783 Z_62_3_0 + 0.3349653087258893 Z_62_3_1
   + 0.00851869124330444 Z_62_3_2 + 0.019210793752571 Z_62_3_3
   + 0.0623243835827347 Z_621_0_0 + 0.026502095272411 Z_621_0_1
   + 0.0269762798851582 Z_621_0_2 + 0.6490243260798827 Z_621_0_3
   + 0.1420748466877144 Z_23_0_0 + 0.0464549010649239 Z_23_0_1
   + 0.026182886725671 Z_23_0_2 + 0.037488612928708 Z_23_0_3
   + 0.0561347481983063 Z_214_0_0 + 0.017899630007735 Z_214_0_1
   + 0.044616011798384 Z_214_0_2 + 0.5158906628371204 Z_214_0_3
   + 0.0234030379606553 Z_340_0_0 + 0.5626291424477626 Z_340_0_1
   + 0.0481853024500708 Z_340_0_2 + 0.1124384051298523 Z_340_0_3
   + 0.00217948189362759 Z_631_1_0 + 0.00609070141644456 Z_631_1_1
   + 0.8667581484684396 Z_631_1_2 + 0.0241958412607442 Z_631_1_3
   + 0.6360421436201303 Z_631_0_0 + 0.0323621105520906 Z_631_0_1
   + 0.0121788440816573 Z_631_0_2 + 0.0893478192275433 Z_631_0_3
   + 0.00490511735106942 Z_41_0_0 + 0.00483050948624186 Z_41_0_1
   + 0.0482917570193629 Z_41_0_2 + 0.8304547744497759 Z_41_0_3
   + 0.103917760134901 Z_470_0_0 + 0.0256091577942124 Z_470_0_1
   + 0.0490606968544176 Z_470_0_2 + 0.066554989336798 Z_470_0_3 + [
   1.57971e-08 Z_577_2_0 * Z_21_0_0 + 0.00576 Z_577_2_0 * Z_272_0_0
   + 8.2644628099173541e-04 Z_577_2_0 * Z_97_0_0
   + 8.2644628099173541e-04 Z_577_2_0 * Z_229_0_0
   + 8.2644628099173541e-04 Z_577_2_0 * Z_505_5_0
   + 8.2644628099173541e-04 Z_577_2_0 * Z_505_1_0
   + 1.27551e-06 Z_577_2_0 * Z_505_0_0
   + 8.2644628099173541e-04 Z_577_2_0 * Z_505_8_0
   + 1.27551e-06 Z_577_2_0 * Z_62_1_0
   + 1.3694419601385812e-04 Z_577_2_0 * Z_340_0_0
   + 1.8499248468030986e-04 Z_577_2_0 * Z_631_1_0
   + 8.2644628099173541e-04 Z_577_2_0 * Z_631_0_0
   + 8.2644628099173541e-04 Z_577_2_0 * Z_41_0_0
   + 1.57971e-08 Z_577_2_1 * Z_21_0_1 + 0.00576 Z_577_2_1 * Z_272_0_1
   + 8.2644628099173541e-04 Z_577_2_1 * Z_97_0_1
   + 8.2644628099173541e-04 Z_577_2_1 * Z_229_0_1
   + 8.2644628099173541e-04 Z_577_2_1 * Z_505_5_1
   + 8.2644628099173541e-04 Z_577_2_1 * Z_505_1_1
   + 1.27551e-06 Z_577_2_1 * Z_505_0_1
   + 8.2644628099173541e-04 Z_577_2_1 * Z_505_8_1
   + 1.27551e-06 Z_577_2_1 * Z_62_1_1
   + 1.3694419601385812e-04 Z_577_2_1 * Z_340_0_1
   + 1.8499248468030986e-04 Z_577_2_1 * Z_631_1_1
   + 8.2644628099173541e-04 Z_577_2_1 * Z_631_0_1
   + 8.2644628099173541e-04 Z_577_2_1 * Z_41_0_1
   + 1.57971e-08 Z_577_2_2 * Z_21_0_2 + 0.00576 Z_577_2_2 * Z_272_0_2
   + 8.2644628099173541e-04 Z_577_2_2 * Z_97_0_2
   + 8.2644628099173541e-04 Z_577_2_2 * Z_229_0_2
   + 8.2644628099173541e-04 Z_577_2_2 * Z_505_5_2
   + 8.2644628099173541e-04 Z_577_2_2 * Z_505_1_2
   + 1.27551e-06 Z_577_2_2 * Z_505_0_2
   + 8.2644628099173541e-04 Z_577_2_2 * Z_505_8_2
   + 1.27551e-06 Z_577_2_2 * Z_62_1_2
   + 1.3694419601385812e-04 Z_577_2_2 * Z_340_0_2
   + 1.8499248468030986e-04 Z_577_2_2 * Z_631_1_2
   + 8.2644628099173541e-04 Z_577_2_2 * Z_631_0_2
   + 8.2644628099173541e-04 Z_577_2_2 * Z_41_0_2
   + 1.57971e-08 Z_577_2_3 * Z_21_0_3 + 0.00576 Z_577_2_3 * Z_272_0_3
   + 8.2644628099173541e-04 Z_577_2_3 * Z_97_0_3
   + 8.2644628099173541e-04 Z_577_2_3 * Z_229_0_3
   + 8.2644628099173541e-04 Z_577_2_3 * Z_505_5_3
   + 8.2644628099173541e-04 Z_577_2_3 * Z_505_1_3
   + 1.27551e-06 Z_577_2_3 * Z_505_0_3
   + 8.2644628099173541e-04 Z_577_2_3 * Z_505_8_3
   + 1.27551e-06 Z_577_2_3 * Z_62_1_3
   + 1.3694419601385812e-04 Z_577_2_3 * Z_340_0_3
   + 1.8499248468030986e-04 Z_577_2_3 * Z_631_1_3
   + 8.2644628099173541e-04 Z_577_2_3 * Z_631_0_3
   + 8.2644628099173541e-04 Z_577_2_3 * Z_41_0_3 + 0.4 Z_577_1_0 * Z_21_0_0
   + 0.0540650290257085 Z_577_1_0 * Z_272_0_0
   + 0.0540650290257085 Z_577_1_0 * Z_97_0_0
   + 0.0540650290257085 Z_577_1_0 * Z_229_0_0
   + 0.0540650290257085 Z_577_1_0 * Z_505_5_0
   + 0.0540650290257085 Z_577_1_0 * Z_505_1_0
   + 0.0540650290257085 Z_577_1_0 * Z_505_8_0
   + 1.1139958333206288e-04 Z_577_1_0 * Z_62_0_0
   + 6.2143e-05 Z_577_1_0 * Z_62_3_0 + 0.4 Z_577_1_0 * Z_214_0_0
   + 0.0540650290257085 Z_577_1_0 * Z_631_0_0
   + 0.0540650290257085 Z_577_1_0 * Z_41_0_0 + 0.4 Z_577_1_1 * Z_21_0_1
   + 0.0540650290257085 Z_577_1_1 * Z_272_0_1
   + 0.0540650290257085 Z_577_1_1 * Z_97_0_1
   + 0.0540650290257085 Z_577_1_1 * Z_229_0_1
   + 0.0540650290257085 Z_577_1_1 * Z_505_5_1
   + 0.0540650290257085 Z_577_1_1 * Z_505_1_1
   + 0.0540650290257085 Z_577_1_1 * Z_505_8_1
   + 1.1139958333206288e-04 Z_577_1_1 * Z_62_0_1
   + 6.2143e-05 Z_577_1_1 * Z_62_3_1 + 0.4 Z_577_1_1 * Z_214_0_1
   + 0.0540650290257085 Z_577_1_1 * Z_631_0_1
   + 0.0540650290257085 Z_577_1_1 * Z_41_0_1 + 0.4 Z_577_1_2 * Z_21_0_2
   + 0.0540650290257085 Z_577_1_2 * Z_272_0_2
   + 0.0540650290257085 Z_577_1_2 * Z_97_0_2
   + 0.0540650290257085 Z_577_1_2 * Z_229_0_2
   + 0.0540650290257085 Z_577_1_2 * Z_505_5_2
   + 0.0540650290257085 Z_577_1_2 * Z_505_1_2
   + 0.0540650290257085 Z_577_1_2 * Z_505_8_2
   + 1.1139958333206288e-04 Z_577_1_2 * Z_62_0_2
   + 6.2143e-05 Z_577_1_2 * Z_62_3_2 + 0.4 Z_577_1_2 * Z_214_0_2
   + 0.0540650290257085 Z_577_1_2 * Z_631_0_2
   + 0.0540650290257085 Z_577_1_2 * Z_41_0_2 + 0.4 Z_577_1_3 * Z_21_0_3
   + 0.0540650290257085 Z_577_1_3 * Z_272_0_3
   + 0.0540650290257085 Z_577_1_3 * Z_97_0_3
   + 0.0540650290257085 Z_577_1_3 * Z_229_0_3
   + 0.0540650290257085 Z_577_1_3 * Z_505_5_3
   + 0.0540650290257085 Z_577_1_3 * Z_505_1_3
   + 0.0540650290257085 Z_577_1_3 * Z_505_8_3
   + 1.1139958333206288e-04 Z_577_1_3 * Z_62_0_3
   + 6.2143e-05 Z_577_1_3 * Z_62_3_3 + 0.4 Z_577_1_3 * Z_214_0_3
   + 0.0540650290257085 Z_577_1_3 * Z_631_0_3
   + 0.0540650290257085 Z_577_1_3 * Z_41_0_3
   + 0.00298848233477133 Z_577_0_0 * Z_21_0_0 + 0.4 Z_577_0_0 * Z_97_0_0
   + 0.1 Z_577_0_0 * Z_62_3_0 + 0.0213781940108683 Z_577_0_0 * Z_340_0_0
   + 0.00298848233477133 Z_577_0_1 * Z_21_0_1 + 0.4 Z_577_0_1 * Z_97_0_1
   + 0.1 Z_577_0_1 * Z_62_3_1 + 0.0213781940108683 Z_577_0_1 * Z_340_0_1
   + 0.00298848233477133 Z_577_0_2 * Z_21_0_2 + 0.4 Z_577_0_2 * Z_97_0_2
   + 0.1 Z_577_0_2 * Z_62_3_2 + 0.0213781940108683 Z_577_0_2 * Z_340_0_2
   + 0.00298848233477133 Z_577_0_3 * Z_21_0_3 + 0.4 Z_577_0_3 * Z_97_0_3
   + 0.1 Z_577_0_3 * Z_62_3_3 + 0.0213781940108683 Z_577_0_3 * Z_340_0_3
   + 0.0442259876184625 Z_21_0_0 * Z_272_0_0
   + 8.04548e-06 Z_21_0_0 * Z_393_0_0
   + 0.0548926276330579 Z_21_0_0 * Z_97_0_0
   + 0.0140546853796184 Z_21_0_0 * Z_229_0_0
   + 0.00732795787481678 Z_21_0_0 * Z_505_3_0
   + 0.0133750257179646 Z_21_0_0 * Z_505_5_0
   + 0.0582658448381283 Z_21_0_0 * Z_505_1_0
   + 4.4444444444444436e-04 Z_21_0_0 * Z_505_2_0
   + 0.0133750257179646 Z_21_0_0 * Z_505_8_0
   + 0.0267571808415683 Z_21_0_0 * Z_62_0_0
   + 0.0267571808415683 Z_21_0_0 * Z_62_3_0
   + 0.0767458866248915 Z_21_0_0 * Z_621_0_0
   + 0.0377779036565945 Z_21_0_0 * Z_23_0_0
   + 0.1039835593017826 Z_21_0_0 * Z_214_0_0
   + 0.0519711394500135 Z_21_0_0 * Z_340_0_0
   + 0.0140546853796184 Z_21_0_0 * Z_631_0_0
   + 0.0329487534397038 Z_21_0_0 * Z_41_0_0
   + 0.0442259876184625 Z_21_0_1 * Z_272_0_1
   + 8.04548e-06 Z_21_0_1 * Z_393_0_1
   + 0.0548926276330579 Z_21_0_1 * Z_97_0_1
   + 0.0140546853796184 Z_21_0_1 * Z_229_0_1
   + 0.00732795787481678 Z_21_0_1 * Z_505_3_1
   + 0.0133750257179646 Z_21_0_1 * Z_505_5_1
   + 0.0582658448381283 Z_21_0_1 * Z_505_1_1
   + 4.4444444444444436e-04 Z_21_0_1 * Z_505_2_1
   + 0.0133750257179646 Z_21_0_1 * Z_505_8_1
   + 0.0267571808415683 Z_21_0_1 * Z_62_0_1
   + 0.0267571808415683 Z_21_0_1 * Z_62_3_1
   + 0.0767458866248915 Z_21_0_1 * Z_621_0_1
   + 0.0377779036565945 Z_21_0_1 * Z_23_0_1
   + 0.1039835593017826 Z_21_0_1 * Z_214_0_1
   + 0.0519711394500135 Z_21_0_1 * Z_340_0_1
   + 0.0140546853796184 Z_21_0_1 * Z_631_0_1
   + 0.0329487534397038 Z_21_0_1 * Z_41_0_1
   + 0.0442259876184625 Z_21_0_2 * Z_272_0_2
   + 8.04548e-06 Z_21_0_2 * Z_393_0_2
   + 0.0548926276330579 Z_21_0_2 * Z_97_0_2
   + 0.0140546853796184 Z_21_0_2 * Z_229_0_2
   + 0.00732795787481678 Z_21_0_2 * Z_505_3_2
   + 0.0133750257179646 Z_21_0_2 * Z_505_5_2
   + 0.0582658448381283 Z_21_0_2 * Z_505_1_2
   + 4.4444444444444436e-04 Z_21_0_2 * Z_505_2_2
   + 0.0133750257179646 Z_21_0_2 * Z_505_8_2
   + 0.0267571808415683 Z_21_0_2 * Z_62_0_2
   + 0.0267571808415683 Z_21_0_2 * Z_62_3_2
   + 0.0767458866248915 Z_21_0_2 * Z_621_0_2
   + 0.0377779036565945 Z_21_0_2 * Z_23_0_2
   + 0.1039835593017826 Z_21_0_2 * Z_214_0_2
   + 0.0519711394500135 Z_21_0_2 * Z_340_0_2
   + 0.0140546853796184 Z_21_0_2 * Z_631_0_2
   + 0.0329487534397038 Z_21_0_2 * Z_41_0_2
   + 0.0442259876184625 Z_21_0_3 * Z_272_0_3
   + 8.04548e-06 Z_21_0_3 * Z_393_0_3
   + 0.0548926276330579 Z_21_0_3 * Z_97_0_3
   + 0.0140546853796184 Z_21_0_3 * Z_229_0_3
   + 0.00732795787481678 Z_21_0_3 * Z_505_3_3
   + 0.0133750257179646 Z_21_0_3 * Z_505_5_3
   + 0.0582658448381283 Z_21_0_3 * Z_505_1_3
   + 4.4444444444444436e-04 Z_21_0_3 * Z_505_2_3
   + 0.0133750257179646 Z_21_0_3 * Z_505_8_3
   + 0.0267571808415683 Z_21_0_3 * Z_62_0_3
   + 0.0267571808415683 Z_21_0_3 * Z_62_3_3
   + 0.0767458866248915 Z_21_0_3 * Z_621_0_3
   + 0.0377779036565945 Z_21_0_3 * Z_23_0_3
   + 0.1039835593017826 Z_21_0_3 * Z_214_0_3
   + 0.0519711394500135 Z_21_0_3 * Z_340_0_3
   + 0.0140546853796184 Z_21_0_3 * Z_631_0_3
   + 0.0329487534397038 Z_21_0_3 * Z_41_0_3
   + 0.1692604127763087 Z_272_0_0 * Z_97_0_0 + 0.4 Z_272_0_0 * Z_229_0_0
   + 0.0689074298642822 Z_272_0_0 * Z_505_5_0
   + 0.0425475887139113 Z_272_0_0 * Z_505_1_0 + 0.025 Z_272_0_0 * Z_505_0_0
   + 3.67698e-05 Z_272_0_0 * Z_505_6_0
   + 0.0665996966772828 Z_272_0_0 * Z_505_8_0 + 0.025 Z_272_0_0 * Z_62_1_0
   + 0.0246025681197094 Z_272_0_0 * Z_62_0_0
   + 0.0137242539490476 Z_272_0_0 * Z_62_3_0
   + 0.1112372306152506 Z_272_0_0 * Z_621_0_0
   + 0.0298193109916204 Z_272_0_0 * Z_23_0_0
   + 0.0279008144171044 Z_272_0_0 * Z_214_0_0
   + 0.0465010913274625 Z_272_0_0 * Z_340_0_0
   + 0.1835504172832885 Z_272_0_0 * Z_631_0_0
   + 0.0662015449558319 Z_272_0_0 * Z_41_0_0
   + 0.1692604127763087 Z_272_0_1 * Z_97_0_1 + 0.4 Z_272_0_1 * Z_229_0_1
   + 0.0689074298642822 Z_272_0_1 * Z_505_5_1
   + 0.0425475887139113 Z_272_0_1 * Z_505_1_1 + 0.025 Z_272_0_1 * Z_505_0_1
   + 3.67698e-05 Z_272_0_1 * Z_505_6_1
   + 0.0665996966772828 Z_272_0_1 * Z_505_8_1 + 0.025 Z_272_0_1 * Z_62_1_1
   + 0.0246025681197094 Z_272_0_1 * Z_62_0_1
   + 0.0137242539490476 Z_272_0_1 * Z_62_3_1
   + 0.1112372306152506 Z_272_0_1 * Z_621_0_1
   + 0.0298193109916204 Z_272_0_1 * Z_23_0_1
   + 0.0279008144171044 Z_272_0_1 * Z_214_0_1
   + 0.0465010913274625 Z_272_0_1 * Z_340_0_1
   + 0.1835504172832885 Z_272_0_1 * Z_631_0_1
   + 0.0662015449558319 Z_272_0_1 * Z_41_0_1
   + 0.1692604127763087 Z_272_0_2 * Z_97_0_2 + 0.4 Z_272_0_2 * Z_229_0_2
   + 0.0689074298642822 Z_272_0_2 * Z_505_5_2
   + 0.0425475887139113 Z_272_0_2 * Z_505_1_2 + 0.025 Z_272_0_2 * Z_505_0_2
   + 3.67698e-05 Z_272_0_2 * Z_505_6_2
   + 0.0665996966772828 Z_272_0_2 * Z_505_8_2 + 0.025 Z_272_0_2 * Z_62_1_2
   + 0.0246025681197094 Z_272_0_2 * Z_62_0_2
   + 0.0137242539490476 Z_272_0_2 * Z_62_3_2
   + 0.1112372306152506 Z_272_0_2 * Z_621_0_2
   + 0.0298193109916204 Z_272_0_2 * Z_23_0_2
   + 0.0279008144171044 Z_272_0_2 * Z_214_0_2
   + 0.0465010913274625 Z_272_0_2 * Z_340_0_2
   + 0.1835504172832885 Z_272_0_2 * Z_631_0_2
   + 0.0662015449558319 Z_272_0_2 * Z_41_0_2
   + 0.1692604127763087 Z_272_0_3 * Z_97_0_3 + 0.4 Z_272_0_3 * Z_229_0_3
   + 0.0689074298642822 Z_272_0_3 * Z_505_5_3
   + 0.0425475887139113 Z_272_0_3 * Z_505_1_3 + 0.025 Z_272_0_3 * Z_505_0_3
   + 3.67698e-05 Z_272_0_3 * Z_505_6_3
   + 0.0665996966772828 Z_272_0_3 * Z_505_8_3 + 0.025 Z_272_0_3 * Z_62_1_3
   + 0.0246025681197094 Z_272_0_3 * Z_62_0_3
   + 0.0137242539490476 Z_272_0_3 * Z_62_3_3
   + 0.1112372306152506 Z_272_0_3 * Z_621_0_3
   + 0.0298193109916204 Z_272_0_3 * Z_23_0_3
   + 0.0279008144171044 Z_272_0_3 * Z_214_0_3
   + 0.0465010913274625 Z_272_0_3 * Z_340_0_3
   + 0.1835504172832885 Z_272_0_3 * Z_631_0_3
   + 0.0662015449558319 Z_272_0_3 * Z_41_0_3 + 0.4 Z_97_0_0 * Z_229_0_0
   + 0.1369555879481197 Z_97_0_0 * Z_505_5_0
   + 0.1188012057470774 Z_97_0_0 * Z_505_1_0
   + 0.1217403382770025 Z_97_0_0 * Z_505_8_0
   + 0.0658154667347144 Z_97_0_0 * Z_62_0_0
   + 0.0880131985157713 Z_97_0_0 * Z_62_3_0
   + 0.0475200744993063 Z_97_0_0 * Z_23_0_0
   + 0.0712811312477711 Z_97_0_0 * Z_214_0_0
   + 0.1028051070102386 Z_97_0_0 * Z_340_0_0
   + 0.1835504172832885 Z_97_0_0 * Z_631_0_0
   + 0.1188012057470774 Z_97_0_0 * Z_41_0_0 + 0.4 Z_97_0_1 * Z_229_0_1
   + 0.1369555879481197 Z_97_0_1 * Z_505_5_1
   + 0.1188012057470774 Z_97_0_1 * Z_505_1_1
   + 0.1217403382770025 Z_97_0_1 * Z_505_8_1
   + 0.0658154667347144 Z_97_0_1 * Z_62_0_1
   + 0.0880131985157713 Z_97_0_1 * Z_62_3_1
   + 0.0475200744993063 Z_97_0_1 * Z_23_0_1
   + 0.0712811312477711 Z_97_0_1 * Z_214_0_1
   + 0.1028051070102386 Z_97_0_1 * Z_340_0_1
   + 0.1835504172832885 Z_97_0_1 * Z_631_0_1
   + 0.1188012057470774 Z_97_0_1 * Z_41_0_1 + 0.4 Z_97_0_2 * Z_229_0_2
   + 0.1369555879481197 Z_97_0_2 * Z_505_5_2
   + 0.1188012057470774 Z_97_0_2 * Z_505_1_2
   + 0.1217403382770025 Z_97_0_2 * Z_505_8_2
   + 0.0658154667347144 Z_97_0_2 * Z_62_0_2
   + 0.0880131985157713 Z_97_0_2 * Z_62_3_2
   + 0.0475200744993063 Z_97_0_2 * Z_23_0_2
   + 0.0712811312477711 Z_97_0_2 * Z_214_0_2
   + 0.1028051070102386 Z_97_0_2 * Z_340_0_2
   + 0.1835504172832885 Z_97_0_2 * Z_631_0_2
   + 0.1188012057470774 Z_97_0_2 * Z_41_0_2 + 0.4 Z_97_0_3 * Z_229_0_3
   + 0.1369555879481197 Z_97_0_3 * Z_505_5_3
   + 0.1188012057470774 Z_97_0_3 * Z_505_1_3
   + 0.1217403382770025 Z_97_0_3 * Z_505_8_3
   + 0.0658154667347144 Z_97_0_3 * Z_62_0_3
   + 0.0880131985157713 Z_97_0_3 * Z_62_3_3
   + 0.0475200744993063 Z_97_0_3 * Z_23_0_3
   + 0.0712811312477711 Z_97_0_3 * Z_214_0_3
   + 0.1028051070102386 Z_97_0_3 * Z_340_0_3
   + 0.1835504172832885 Z_97_0_3 * Z_631_0_3
   + 0.1188012057470774 Z_97_0_3 * Z_41_0_3 + 0.4 Z_229_0_0 * Z_505_5_0
   + 0.4 Z_229_0_0 * Z_505_1_0 + 0.4 Z_229_0_0 * Z_505_8_0
   + 5.04987e-05 Z_229_0_0 * Z_62_0_0 + 5.04987e-05 Z_229_0_0 * Z_62_3_0
   + 0.4 Z_229_0_0 * Z_214_0_0 + 0.4 Z_229_0_0 * Z_340_0_0
   + 0.4 Z_229_0_0 * Z_631_0_0 + 0.4 Z_229_0_0 * Z_41_0_0
   + 0.4 Z_229_0_1 * Z_505_5_1 + 0.4 Z_229_0_1 * Z_505_1_1
   + 0.4 Z_229_0_1 * Z_505_8_1 + 5.04987e-05 Z_229_0_1 * Z_62_0_1
   + 5.04987e-05 Z_229_0_1 * Z_62_3_1 + 0.4 Z_229_0_1 * Z_214_0_1
   + 0.4 Z_229_0_1 * Z_340_0_1 + 0.4 Z_229_0_1 * Z_631_0_1
   + 0.4 Z_229_0_1 * Z_41_0_1 + 0.4 Z_229_0_2 * Z_505_5_2
   + 0.4 Z_229_0_2 * Z_505_1_2 + 0.4 Z_229_0_2 * Z_505_8_2
   + 5.04987e-05 Z_229_0_2 * Z_62_0_2 + 5.04987e-05 Z_229_0_2 * Z_62_3_2
   + 0.4 Z_229_0_2 * Z_214_0_2 + 0.4 Z_229_0_2 * Z_340_0_2
   + 0.4 Z_229_0_2 * Z_631_0_2 + 0.4 Z_229_0_2 * Z_41_0_2
   + 0.4 Z_229_0_3 * Z_505_5_3 + 0.4 Z_229_0_3 * Z_505_1_3
   + 0.4 Z_229_0_3 * Z_505_8_3 + 5.04987e-05 Z_229_0_3 * Z_62_0_3
   + 5.04987e-05 Z_229_0_3 * Z_62_3_3 + 0.4 Z_229_0_3 * Z_214_0_3
   + 0.4 Z_229_0_3 * Z_340_0_3 + 0.4 Z_229_0_3 * Z_631_0_3
   + 0.4 Z_229_0_3 * Z_41_0_3 + 1.72902e-05 Z_505_5_0 * Z_62_0_0
   + 1.72902e-05 Z_505_5_0 * Z_62_3_0
   + 0.1369555879481197 Z_505_5_0 * Z_214_0_0
   + 0.1369555879481197 Z_505_5_0 * Z_340_0_0
   + 0.1835504172832885 Z_505_5_0 * Z_631_0_0
   + 0.1369555879481197 Z_505_5_0 * Z_41_0_0
   + 1.72902e-05 Z_505_5_1 * Z_62_0_1 + 1.72902e-05 Z_505_5_1 * Z_62_3_1
   + 0.1369555879481197 Z_505_5_1 * Z_214_0_1
   + 0.1369555879481197 Z_505_5_1 * Z_340_0_1
   + 0.1835504172832885 Z_505_5_1 * Z_631_0_1
   + 0.1369555879481197 Z_505_5_1 * Z_41_0_1
   + 1.72902e-05 Z_505_5_2 * Z_62_0_2 + 1.72902e-05 Z_505_5_2 * Z_62_3_2
   + 0.1369555879481197 Z_505_5_2 * Z_214_0_2
   + 0.1369555879481197 Z_505_5_2 * Z_340_0_2
   + 0.1835504172832885 Z_505_5_2 * Z_631_0_2
   + 0.1369555879481197 Z_505_5_2 * Z_41_0_2
   + 1.72902e-05 Z_505_5_3 * Z_62_0_3 + 1.72902e-05 Z_505_5_3 * Z_62_3_3
   + 0.1369555879481197 Z_505_5_3 * Z_214_0_3
   + 0.1369555879481197 Z_505_5_3 * Z_340_0_3
   + 0.1835504172832885 Z_505_5_3 * Z_631_0_3
   + 0.1369555879481197 Z_505_5_3 * Z_41_0_3 + 0.4 Z_505_1_0 * Z_62_2_0
   + 0.0179737296163891 Z_505_1_0 * Z_62_0_0
   + 0.013081325185823 Z_505_1_0 * Z_62_3_0
   + 0.0298193109916204 Z_505_1_0 * Z_23_0_0
   + 0.0244757797035429 Z_505_1_0 * Z_214_0_0
   + 0.0636083741172206 Z_505_1_0 * Z_340_0_0
   + 0.0945352433181986 Z_505_1_0 * Z_631_0_0
   + 0.0728149242376869 Z_505_1_0 * Z_41_0_0 + 0.4 Z_505_1_1 * Z_62_2_1
   + 0.0179737296163891 Z_505_1_1 * Z_62_0_1
   + 0.013081325185823 Z_505_1_1 * Z_62_3_1
   + 0.0298193109916204 Z_505_1_1 * Z_23_0_1
   + 0.0244757797035429 Z_505_1_1 * Z_214_0_1
   + 0.0636083741172206 Z_505_1_1 * Z_340_0_1
   + 0.0945352433181986 Z_505_1_1 * Z_631_0_1
   + 0.0728149242376869 Z_505_1_1 * Z_41_0_1 + 0.4 Z_505_1_2 * Z_62_2_2
   + 0.0179737296163891 Z_505_1_2 * Z_62_0_2
   + 0.013081325185823 Z_505_1_2 * Z_62_3_2
   + 0.0298193109916204 Z_505_1_2 * Z_23_0_2
   + 0.0244757797035429 Z_505_1_2 * Z_214_0_2
   + 0.0636083741172206 Z_505_1_2 * Z_340_0_2
   + 0.0945352433181986 Z_505_1_2 * Z_631_0_2
   + 0.0728149242376869 Z_505_1_2 * Z_41_0_2 + 0.4 Z_505_1_3 * Z_62_2_3
   + 0.0179737296163891 Z_505_1_3 * Z_62_0_3
   + 0.013081325185823 Z_505_1_3 * Z_62_3_3
   + 0.0298193109916204 Z_505_1_3 * Z_23_0_3
   + 0.0244757797035429 Z_505_1_3 * Z_214_0_3
   + 0.0636083741172206 Z_505_1_3 * Z_340_0_3
   + 0.0945352433181986 Z_505_1_3 * Z_631_0_3
   + 0.0728149242376869 Z_505_1_3 * Z_41_0_3 + 0.4 Z_505_0_0 * Z_62_1_0
   + 5.66893e-05 Z_505_0_0 * Z_62_0_0 + 5.66893e-05 Z_505_0_0 * Z_62_3_0
   + 0.0444444444444444 Z_505_0_0 * Z_23_0_0
   + 1.4953e-05 Z_505_0_0 * Z_340_0_0 + 0.000510204 Z_505_0_0 * Z_631_0_0
   + 0.00440650850473785 Z_505_0_0 * Z_41_0_0 + 0.4 Z_505_0_1 * Z_62_1_1
   + 5.66893e-05 Z_505_0_1 * Z_62_0_1 + 5.66893e-05 Z_505_0_1 * Z_62_3_1
   + 0.0444444444444444 Z_505_0_1 * Z_23_0_1
   + 1.4953e-05 Z_505_0_1 * Z_340_0_1 + 0.000510204 Z_505_0_1 * Z_631_0_1
   + 0.00440650850473785 Z_505_0_1 * Z_41_0_1 + 0.4 Z_505_0_2 * Z_62_1_2
   + 5.66893e-05 Z_505_0_2 * Z_62_0_2 + 5.66893e-05 Z_505_0_2 * Z_62_3_2
   + 0.0444444444444444 Z_505_0_2 * Z_23_0_2
   + 1.4953e-05 Z_505_0_2 * Z_340_0_2 + 0.000510204 Z_505_0_2 * Z_631_0_2
   + 0.00440650850473785 Z_505_0_2 * Z_41_0_2 + 0.4 Z_505_0_3 * Z_62_1_3
   + 5.66893e-05 Z_505_0_3 * Z_62_0_3 + 5.66893e-05 Z_505_0_3 * Z_62_3_3
   + 0.0444444444444444 Z_505_0_3 * Z_23_0_3
   + 1.4953e-05 Z_505_0_3 * Z_340_0_3 + 0.000510204 Z_505_0_3 * Z_631_0_3
   + 0.00440650850473785 Z_505_0_3 * Z_41_0_3
   + 0.00236686390532544 Z_505_6_0 * Z_62_1_0
   + 0.00277777777777778 Z_505_6_0 * Z_62_0_0
   + 0.00277777777777778 Z_505_6_0 * Z_62_3_0
   + 4.0338233472056451e-04 Z_505_6_0 * Z_41_0_0
   + 0.00236686390532544 Z_505_6_1 * Z_62_1_1
   + 0.00277777777777778 Z_505_6_1 * Z_62_0_1
   + 0.00277777777777778 Z_505_6_1 * Z_62_3_1
   + 4.0338233472056451e-04 Z_505_6_1 * Z_41_0_1
   + 0.00236686390532544 Z_505_6_2 * Z_62_1_2
   + 0.00277777777777778 Z_505_6_2 * Z_62_0_2
   + 0.00277777777777778 Z_505_6_2 * Z_62_3_2
   + 4.0338233472056451e-04 Z_505_6_2 * Z_41_0_2
   + 0.00236686390532544 Z_505_6_3 * Z_62_1_3
   + 0.00277777777777778 Z_505_6_3 * Z_62_0_3
   + 0.00277777777777778 Z_505_6_3 * Z_62_3_3
   + 4.0338233472056451e-04 Z_505_6_3 * Z_41_0_3 + 0.4 Z_505_4_0 * Z_62_2_0
   + 0.05625 Z_505_4_0 * Z_41_0_0 + 0.4 Z_505_4_1 * Z_62_2_1
   + 0.05625 Z_505_4_1 * Z_41_0_1 + 0.4 Z_505_4_2 * Z_62_2_2
   + 0.05625 Z_505_4_2 * Z_41_0_2 + 0.4 Z_505_4_3 * Z_62_2_3
   + 0.05625 Z_505_4_3 * Z_41_0_3 + 0.4 Z_505_7_0 * Z_340_0_0
   + 0.4 Z_505_7_1 * Z_340_0_1 + 0.4 Z_505_7_2 * Z_340_0_2
   + 0.4 Z_505_7_3 * Z_340_0_3 + 0.00493827160493827 Z_505_2_0 * Z_41_0_0
   + 0.00493827160493827 Z_505_2_1 * Z_41_0_1
   + 0.00493827160493827 Z_505_2_2 * Z_41_0_2
   + 0.00493827160493827 Z_505_2_3 * Z_41_0_3
   + 0.00236686390532544 Z_505_8_0 * Z_62_1_0
   + 2.3268222419522321e-04 Z_505_8_0 * Z_62_0_0
   + 2.3268222419522321e-04 Z_505_8_0 * Z_62_3_0
   + 0.0582995342358374 Z_505_8_0 * Z_214_0_0
   + 0.1099664111361884 Z_505_8_0 * Z_340_0_0
   + 0.1835504172832885 Z_505_8_0 * Z_631_0_0
   + 0.0376726210714948 Z_505_8_0 * Z_41_0_0
   + 0.00236686390532544 Z_505_8_1 * Z_62_1_1
   + 2.3268222419522321e-04 Z_505_8_1 * Z_62_0_1
   + 2.3268222419522321e-04 Z_505_8_1 * Z_62_3_1
   + 0.0582995342358374 Z_505_8_1 * Z_214_0_1
   + 0.1099664111361884 Z_505_8_1 * Z_340_0_1
   + 0.1835504172832885 Z_505_8_1 * Z_631_0_1
   + 0.0376726210714948 Z_505_8_1 * Z_41_0_1
   + 0.00236686390532544 Z_505_8_2 * Z_62_1_2
   + 2.3268222419522321e-04 Z_505_8_2 * Z_62_0_2
   + 2.3268222419522321e-04 Z_505_8_2 * Z_62_3_2
   + 0.0582995342358374 Z_505_8_2 * Z_214_0_2
   + 0.1099664111361884 Z_505_8_2 * Z_340_0_2
   + 0.1835504172832885 Z_505_8_2 * Z_631_0_2
   + 0.0376726210714948 Z_505_8_2 * Z_41_0_2
   + 0.00236686390532544 Z_505_8_3 * Z_62_1_3
   + 2.3268222419522321e-04 Z_505_8_3 * Z_62_0_3
   + 2.3268222419522321e-04 Z_505_8_3 * Z_62_3_3
   + 0.0582995342358374 Z_505_8_3 * Z_214_0_3
   + 0.1099664111361884 Z_505_8_3 * Z_340_0_3
   + 0.1835504172832885 Z_505_8_3 * Z_631_0_3
   + 0.0376726210714948 Z_505_8_3 * Z_41_0_3 + 0.05625 Z_62_2_0 * Z_41_0_0
   + 0.05625 Z_62_2_1 * Z_41_0_1 + 0.05625 Z_62_2_2 * Z_41_0_2
   + 0.05625 Z_62_2_3 * Z_41_0_3 + 0.0444444444444444 Z_62_1_0 * Z_23_0_0
   + 1.4953e-05 Z_62_1_0 * Z_340_0_0 + 0.000510204 Z_62_1_0 * Z_631_0_0
   + 0.00440650850473785 Z_62_1_0 * Z_41_0_0
   + 0.0444444444444444 Z_62_1_1 * Z_23_0_1
   + 1.4953e-05 Z_62_1_1 * Z_340_0_1 + 0.000510204 Z_62_1_1 * Z_631_0_1
   + 0.00440650850473785 Z_62_1_1 * Z_41_0_1
   + 0.0444444444444444 Z_62_1_2 * Z_23_0_2
   + 1.4953e-05 Z_62_1_2 * Z_340_0_2 + 0.000510204 Z_62_1_2 * Z_631_0_2
   + 0.00440650850473785 Z_62_1_2 * Z_41_0_2
   + 0.0444444444444444 Z_62_1_3 * Z_23_0_3
   + 1.4953e-05 Z_62_1_3 * Z_340_0_3 + 0.000510204 Z_62_1_3 * Z_631_0_3
   + 0.00440650850473785 Z_62_1_3 * Z_41_0_3
   + 0.0618661862084058 Z_62_0_0 * Z_23_0_0
   + 0.0286334750681422 Z_62_0_0 * Z_340_0_0
   + 0.00733743352865644 Z_62_0_0 * Z_631_0_0
   + 0.0246025681197094 Z_62_0_0 * Z_41_0_0
   + 0.0618661862084058 Z_62_0_1 * Z_23_0_1
   + 0.0286334750681422 Z_62_0_1 * Z_340_0_1
   + 0.00733743352865644 Z_62_0_1 * Z_631_0_1
   + 0.0246025681197094 Z_62_0_1 * Z_41_0_1
   + 0.0618661862084058 Z_62_0_2 * Z_23_0_2
   + 0.0286334750681422 Z_62_0_2 * Z_340_0_2
   + 0.00733743352865644 Z_62_0_2 * Z_631_0_2
   + 0.0246025681197094 Z_62_0_2 * Z_41_0_2
   + 0.0618661862084058 Z_62_0_3 * Z_23_0_3
   + 0.0286334750681422 Z_62_0_3 * Z_340_0_3
   + 0.00733743352865644 Z_62_0_3 * Z_631_0_3
   + 0.0246025681197094 Z_62_0_3 * Z_41_0_3
   + 0.0618661862084058 Z_62_3_0 * Z_23_0_0
   + 0.0286334750681422 Z_62_3_0 * Z_340_0_0
   + 0.00733743352865644 Z_62_3_0 * Z_631_0_0
   + 0.0137242539490476 Z_62_3_0 * Z_41_0_0
   + 0.0618661862084058 Z_62_3_1 * Z_23_0_1
   + 0.0286334750681422 Z_62_3_1 * Z_340_0_1
   + 0.00733743352865644 Z_62_3_1 * Z_631_0_1
   + 0.0137242539490476 Z_62_3_1 * Z_41_0_1
   + 0.0618661862084058 Z_62_3_2 * Z_23_0_2
   + 0.0286334750681422 Z_62_3_2 * Z_340_0_2
   + 0.00733743352865644 Z_62_3_2 * Z_631_0_2
   + 0.0137242539490476 Z_62_3_2 * Z_41_0_2
   + 0.0618661862084058 Z_62_3_3 * Z_23_0_3
   + 0.0286334750681422 Z_62_3_3 * Z_340_0_3
   + 0.00733743352865644 Z_62_3_3 * Z_631_0_3
   + 0.0137242539490476 Z_62_3_3 * Z_41_0_3
   + 0.0385321245535377 Z_23_0_0 * Z_340_0_0
   + 0.0238422419979851 Z_23_0_0 * Z_41_0_0
   + 0.0385321245535377 Z_23_0_1 * Z_340_0_1
   + 0.0238422419979851 Z_23_0_1 * Z_41_0_1
   + 0.0385321245535377 Z_23_0_2 * Z_340_0_2
   + 0.0238422419979851 Z_23_0_2 * Z_41_0_2
   + 0.0385321245535377 Z_23_0_3 * Z_340_0_3
   + 0.0238422419979851 Z_23_0_3 * Z_41_0_3
   + 0.1835504172832885 Z_214_0_0 * Z_631_0_0
   + 0.0700106597976633 Z_214_0_0 * Z_41_0_0
   + 0.1835504172832885 Z_214_0_1 * Z_631_0_1
   + 0.0700106597976633 Z_214_0_1 * Z_41_0_1
   + 0.1835504172832885 Z_214_0_2 * Z_631_0_2
   + 0.0700106597976633 Z_214_0_2 * Z_41_0_2
   + 0.1835504172832885 Z_214_0_3 * Z_631_0_3
   + 0.0700106597976633 Z_214_0_3 * Z_41_0_3
   + 0.1835504172832885 Z_340_0_0 * Z_631_0_0
   + 0.0438029755109529 Z_340_0_0 * Z_41_0_0
   + 0.1835504172832885 Z_340_0_1 * Z_631_0_1
   + 0.0438029755109529 Z_340_0_1 * Z_41_0_1
   + 0.1835504172832885 Z_340_0_2 * Z_631_0_2
   + 0.0438029755109529 Z_340_0_2 * Z_41_0_2
   + 0.1835504172832885 Z_340_0_3 * Z_631_0_3
   + 0.0438029755109529 Z_340_0_3 * Z_41_0_3
   + 0.121060380381779 Z_631_0_0 * Z_41_0_0
   + 0.121060380381779 Z_631_0_1 * Z_41_0_1
   + 0.121060380381779 Z_631_0_2 * Z_41_0_2
   + 0.121060380381779 Z_631_0_3 * Z_41_0_3 ] / 2 
Subject To
 constraint1_5772: Z_577_2_0 + Z_577_2_1 + Z_577_2_2 + Z_577_2_3 <= 1
 constraint1_5771: Z_577_1_0 + Z_577_1_1 + Z_577_1_2 + Z_577_1_3 <= 1
 constraint1_5770: Z_577_0_0 + Z_577_0_1 + Z_577_0_2 + Z_577_0_3 <= 1
 constraint1_210: Z_21_0_0 + Z_21_0_1 + Z_21_0_2 + Z_21_0_3 <= 1
 constraint1_2720: Z_272_0_0 + Z_272_0_1 + Z_272_0_2 + Z_272_0_3 <= 1
 constraint1_3930: Z_393_0_0 + Z_393_0_1 + Z_393_0_2 + Z_393_0_3 <= 1
 constraint1_970: Z_97_0_0 + Z_97_0_1 + Z_97_0_2 + Z_97_0_3 <= 1
 constraint1_2290: Z_229_0_0 + Z_229_0_1 + Z_229_0_2 + Z_229_0_3 <= 1
 constraint1_5053: Z_505_3_0 + Z_505_3_1 + Z_505_3_2 + Z_505_3_3 <= 1
 constraint1_5055: Z_505_5_0 + Z_505_5_1 + Z_505_5_2 + Z_505_5_3 <= 1
 constraint1_5051: Z_505_1_0 + Z_505_1_1 + Z_505_1_2 + Z_505_1_3 <= 1
 constraint1_5050: Z_505_0_0 + Z_505_0_1 + Z_505_0_2 + Z_505_0_3 <= 1
 constraint1_5056: Z_505_6_0 + Z_505_6_1 + Z_505_6_2 + Z_505_6_3 <= 1
 constraint1_5054: Z_505_4_0 + Z_505_4_1 + Z_505_4_2 + Z_505_4_3 <= 1
 constraint1_5057: Z_505_7_0 + Z_505_7_1 + Z_505_7_2 + Z_505_7_3 <= 1
 constraint1_5052: Z_505_2_0 + Z_505_2_1 + Z_505_2_2 + Z_505_2_3 <= 1
 constraint1_5058: Z_505_8_0 + Z_505_8_1 + Z_505_8_2 + Z_505_8_3 <= 1
 constraint1_622: Z_62_2_0 + Z_62_2_1 + Z_62_2_2 + Z_62_2_3 <= 1
 constraint1_621: Z_62_1_0 + Z_62_1_1 + Z_62_1_2 + Z_62_1_3 <= 1
 constraint1_620: Z_62_0_0 + Z_62_0_1 + Z_62_0_2 + Z_62_0_3 <= 1
 constraint1_623: Z_62_3_0 + Z_62_3_1 + Z_62_3_2 + Z_62_3_3 <= 1
 constraint1_6210: Z_621_0_0 + Z_621_0_1 + Z_621_0_2 + Z_621_0_3 <= 1
 constraint1_230: Z_23_0_0 + Z_23_0_1 + Z_23_0_2 + Z_23_0_3 <= 1
 constraint1_2140: Z_214_0_0 + Z_214_0_1 + Z_214_0_2 + Z_214_0_3 <= 1
 constraint1_3400: Z_340_0_0 + Z_340_0_1 + Z_340_0_2 + Z_340_0_3 <= 1
 constraint1_6311: Z_631_1_0 + Z_631_1_1 + Z_631_1_2 + Z_631_1_3 <= 1
 constraint1_6310: Z_631_0_0 + Z_631_0_1 + Z_631_0_2 + Z_631_0_3 <= 1
 constraint1_410: Z_41_0_0 + Z_41_0_1 + Z_41_0_2 + Z_41_0_3 <= 1
 constraint1_4700: Z_470_0_0 + Z_470_0_1 + Z_470_0_2 + Z_470_0_3 <= 1
 constraint2_5770: Z_577_2_0 + Z_577_1_0 + Z_577_0_0 <= 1
 constraint2_5771: Z_577_2_1 + Z_577_1_1 + Z_577_0_1 <= 1
 constraint2_5772: Z_577_2_2 + Z_577_1_2 + Z_577_0_2 <= 1
 constraint2_5773: Z_577_2_3 + Z_577_1_3 + Z_577_0_3 <= 1
 constraint2_210: Z_21_0_0 <= 1
 constraint2_211: Z_21_0_1 <= 1
 constraint2_212: Z_21_0_2 <= 1
 constraint2_213: Z_21_0_3 <= 1
 constraint2_2720: Z_272_0_0 <= 1
 constraint2_2721: Z_272_0_1 <= 1
 constraint2_2722: Z_272_0_2 <= 1
 constraint2_2723: Z_272_0_3 <= 1
 constraint2_3930: Z_393_0_0 <= 1
 constraint2_3931: Z_393_0_1 <= 1
 constraint2_3932: Z_393_0_2 <= 1
 constraint2_3933: Z_393_0_3 <= 1
 constraint2_970: Z_97_0_0 <= 1
 constraint2_971: Z_97_0_1 <= 1
 constraint2_972: Z_97_0_2 <= 1
 constraint2_973: Z_97_0_3 <= 1
 constraint2_2290: Z_229_0_0 <= 1
 constraint2_2291: Z_229_0_1 <= 1
 constraint2_2292: Z_229_0_2 <= 1
 constraint2_2293: Z_229_0_3 <= 1
 constraint2_5050: Z_505_3_0 + Z_505_5_0 + Z_505_1_0 + Z_505_0_0
   + Z_505_6_0 + Z_505_4_0 + Z_505_7_0 + Z_505_2_0 + Z_505_8_0 <= 1
 constraint2_5051: Z_505_3_1 + Z_505_5_1 + Z_505_1_1 + Z_505_0_1
   + Z_505_6_1 + Z_505_4_1 + Z_505_7_1 + Z_505_2_1 + Z_505_8_1 <= 1
 constraint2_5052: Z_505_3_2 + Z_505_5_2 + Z_505_1_2 + Z_505_0_2
   + Z_505_6_2 + Z_505_4_2 + Z_505_7_2 + Z_505_2_2 + Z_505_8_2 <= 1
 constraint2_5053: Z_505_3_3 + Z_505_5_3 + Z_505_1_3 + Z_505_0_3
   + Z_505_6_3 + Z_505_4_3 + Z_505_7_3 + Z_505_2_3 + Z_505_8_3 <= 1
 constraint2_620: Z_62_2_0 + Z_62_1_0 + Z_62_0_0 + Z_62_3_0 <= 1
 constraint2_621: Z_62_2_1 + Z_62_1_1 + Z_62_0_1 + Z_62_3_1 <= 1
 constraint2_622: Z_62_2_2 + Z_62_1_2 + Z_62_0_2 + Z_62_3_2 <= 1
 constraint2_623: Z_62_2_3 + Z_62_1_3 + Z_62_0_3 + Z_62_3_3 <= 1
 constraint2_6210: Z_621_0_0 <= 1
 constraint2_6211: Z_621_0_1 <= 1
 constraint2_6212: Z_621_0_2 <= 1
 constraint2_6213: Z_621_0_3 <= 1
 constraint2_230: Z_23_0_0 <= 1
 constraint2_231: Z_23_0_1 <= 1
 constraint2_232: Z_23_0_2 <= 1
 constraint2_233: Z_23_0_3 <= 1
 constraint2_2140: Z_214_0_0 <= 1
 constraint2_2141: Z_214_0_1 <= 1
 constraint2_2142: Z_214_0_2 <= 1
 constraint2_2143: Z_214_0_3 <= 1
 constraint2_3400: Z_340_0_0 <= 1
 constraint2_3401: Z_340_0_1 <= 1
 constraint2_3402: Z_340_0_2 <= 1
 constraint2_3403: Z_340_0_3 <= 1
 constraint2_6310: Z_631_1_0 + Z_631_0_0 <= 1
 constraint2_6311: Z_631_1_1 + Z_631_0_1 <= 1
 constraint2_6312: Z_631_1_2 + Z_631_0_2 <= 1
 constraint2_6313: Z_631_1_3 + Z_631_0_3 <= 1
 constraint2_410: Z_41_0_0 <= 1
 constraint2_411: Z_41_0_1 <= 1
 constraint2_412: Z_41_0_2 <= 1
 constraint2_413: Z_41_0_3 <= 1
 constraint2_4700: Z_470_0_0 <= 1
 constraint2_4701: Z_470_0_1 <= 1
 constraint2_4702: Z_470_0_2 <= 1
 constraint2_4703: Z_470_0_3 <= 1
Bounds
Binaries
 Z_577_2_0 Z_577_2_1 Z_577_2_2 Z_577_2_3 Z_577_1_0 Z_577_1_1 Z_577_1_2
 Z_577_1_3 Z_577_0_0 Z_577_0_1 Z_577_0_2 Z_577_0_3 Z_21_0_0 Z_21_0_1
 Z_21_0_2 Z_21_0_3 Z_272_0_0 Z_272_0_1 Z_272_0_2 Z_272_0_3 Z_393_0_0
 Z_393_0_1 Z_393_0_2 Z_393_0_3 Z_97_0_0 Z_97_0_1 Z_97_0_2 Z_97_0_3
 Z_229_0_0 Z_229_0_1 Z_229_0_2 Z_229_0_3 Z_505_3_0 Z_505_3_1 Z_505_3_2
 Z_505_3_3 Z_505_5_0 Z_505_5_1 Z_505_5_2 Z_505_5_3 Z_505_1_0 Z_505_1_1
 Z_505_1_2 Z_505_1_3 Z_505_0_0 Z_505_0_1 Z_505_0_2 Z_505_0_3 Z_505_6_0
 Z_505_6_1 Z_505_6_2 Z_505_6_3 Z_505_4_0 Z_505_4_1 Z_505_4_2 Z_505_4_3
 Z_505_7_0 Z_505_7_1 Z_505_7_2 Z_505_7_3 Z_505_2_0 Z_505_2_1 Z_505_2_2
 Z_505_2_3 Z_505_8_0 Z_505_8_1 Z_505_8_2 Z_505_8_3 Z_62_2_0 Z_62_2_1
 Z_62_2_2 Z_62_2_3 Z_62_1_0 Z_62_1_1 Z_62_1_2 Z_62_1_3 Z_62_0_0 Z_62_0_1
 Z_62_0_2 Z_62_0_3 Z_62_3_0 Z_62_3_1 Z_62_3_2 Z_62_3_3 Z_621_0_0 Z_621_0_1
 Z_621_0_2 Z_621_0_3 Z_23_0_0 Z_23_0_1 Z_23_0_2 Z_23_0_3 Z_214_0_0
 Z_214_0_1 Z_214_0_2 Z_214_0_3 Z_340_0_0 Z_340_0_1 Z_340_0_2 Z_340_0_3
 Z_631_1_0 Z_631_1_1 Z_631_1_2 Z_631_1_3 Z_631_0_0 Z_631_0_1 Z_631_0_2
 Z_631_0_3 Z_41_0_0 Z_41_0_1 Z_41_0_2 Z_41_0_3 Z_470_0_0 Z_470_0_1
 Z_470_0_2 Z_470_0_3
End
